WARNING: for repeatability, setting FPU to use double precision
============================[ Problem Statistics ]=============================
|                                                                             |
|  Number of variables:           800                                         |
|  Number of clauses:           33665                                         |
|  Parse time:                   0.01 s                                       |
|                                                                             |
c ============================[ Search Statistics ]==============================
c | Conflicts |          ORIGINAL         |          LEARNT          | Progress |
c |           |    Vars  Clauses Literals |    Limit  Clauses Lit/Cl |          |
c ===============================================================================
c Switched to VSIDS.
c Switched to LRB.
c Switched to VSIDS.
c Switched to LRB.
c Switched to VSIDS.
c Switched to LRB.
c Switched to VSIDS.
c Switched to LRB.
c Switched to VSIDS.
c Switched to LRB.
c Switched to VSIDS.
c Switched to LRB.
c Switched to VSIDS.
c Switched to LRB.
c ===============================================================================
restarts                  : 85099
conflicts                 : 18695489       (5304 /sec)
decisions                 : 36912924       (0.00 % random) (10472 /sec)
propagations              : 951564778      (269965 /sec)
conflict literals         : 5185047286     (8.97 % deleted)

conflicts w/ DIP found    : 11416598       (61.07 % of conflicts)
conflicts w/ dangerous DIP: 0              (0.00 % of conflicts)
conflicts w/ DIP-learning : 6571           (0.04 % of conflicts)
decisions on ext vars     : 649            (0.00 % of decisions)
total ext vars            : 1277        
tried delete ext vars     : 174         
deleted ext vars          : 174         
max ext vars              : 1103        

Memory used               : 373.00 MB
CPU time                  : 3524.78 s
DIP computation time      : 98.4333 s (2.79 % of total time)
ER_sel time               : 34.8438 s
ER_add time               : 0.007101 s
ER_delC time              : 0 s
ER_delV time              : 0.400159 s
ER_sub time               : 37.7752 s
ER_stat time              : 0 s

INDETERMINATE
